NAME : u724.17272.tour
COMMENT : Length = 17272
COMMENT : Found by LKH [Keld Helsgaun] Sat May 25 06:45:53 2013
TYPE : TOUR
DIMENSION : 145
TOUR_SECTION
1
12
14
26
95
48
49
671
674
613
614
154
166
142
144
179
180
560
562
538
202
238
241
328
334
304
306
315
310
397
395
394
383
376
368
472
403
364
468
418
419
460
463
453
432
431
415
365
294
295
293
296
478
490
491
492
497
323
332
322
228
205
201
196
254
221
208
216
346
344
498
504
354
503
212
253
211
526
521
265
524
259
271
282
131
284
283
585
584
602
134
589
557
188
550
574
575
559
592
606
608
153
619
663
664
666
677
665
670
684
44
29
45
689
47
103
88
67
108
117
652
648
641
123
119
122
118
104
63
115
111
110
17
700
701
710
702
699
696
698
713
4
11
722
724
-1
EOF
